p cnf 70 35
42 47 -62 0
-1 -17 -13 0
-3 -57 -50 0
-28 -62 -50 0
-31 -3 -63 0
-69 -35 -11 0
-15 21 42 0
-33 53 -43 0
6 9 -10 0
65 43 -32 0
-32 -40 -17 0
60 36 45 0
-15 63 -34 0
-29 17 53 0
-42 6 -65 0
-56 -34 -12 0
68 -3 -12 0
-20 57 7 0
35 -51 -40 0
-68 21 -13 0
-31 53 -16 0
12 9 -61 0
-59 27 -67 0
-69 -48 -5 0
10 -3 5 0
48 -27 38 0
-60 -44 -55 0
-20 3 66 0
-14 31 -8 0
14 35 33 0
-18 8 52 0
13 40 51 0
2 44 46 0
12 -42 -22 0
-20 5 -22 0
